; benchmark generated from python API
(set-info :status unknown)
(declare-fun cell_1_1 () Int)
(declare-fun cell_2_1 () Int)
(declare-fun cell_3_1 () Int)
(declare-fun cell_4_1 () Int)
(declare-fun cell_5_1 () Int)
(declare-fun cell_6_1 () Int)
(declare-fun cell_7_1 () Int)
(declare-fun cell_8_1 () Int)
(declare-fun cell_9_1 () Int)
(declare-fun cell_1_2 () Int)
(declare-fun cell_2_2 () Int)
(declare-fun cell_3_2 () Int)
(declare-fun cell_4_2 () Int)
(declare-fun cell_5_2 () Int)
(declare-fun cell_6_2 () Int)
(declare-fun cell_7_2 () Int)
(declare-fun cell_8_2 () Int)
(declare-fun cell_9_2 () Int)
(declare-fun cell_1_3 () Int)
(declare-fun cell_2_3 () Int)
(declare-fun cell_3_3 () Int)
(declare-fun cell_4_3 () Int)
(declare-fun cell_5_3 () Int)
(declare-fun cell_6_3 () Int)
(declare-fun cell_7_3 () Int)
(declare-fun cell_8_3 () Int)
(declare-fun cell_9_3 () Int)
(declare-fun cell_1_4 () Int)
(declare-fun cell_2_4 () Int)
(declare-fun cell_3_4 () Int)
(declare-fun cell_4_4 () Int)
(declare-fun cell_5_4 () Int)
(declare-fun cell_6_4 () Int)
(declare-fun cell_7_4 () Int)
(declare-fun cell_8_4 () Int)
(declare-fun cell_9_4 () Int)
(declare-fun cell_1_5 () Int)
(declare-fun cell_2_5 () Int)
(declare-fun cell_3_5 () Int)
(declare-fun cell_4_5 () Int)
(declare-fun cell_5_5 () Int)
(declare-fun cell_6_5 () Int)
(declare-fun cell_7_5 () Int)
(declare-fun cell_8_5 () Int)
(declare-fun cell_9_5 () Int)
(declare-fun cell_1_6 () Int)
(declare-fun cell_2_6 () Int)
(declare-fun cell_3_6 () Int)
(declare-fun cell_4_6 () Int)
(declare-fun cell_5_6 () Int)
(declare-fun cell_6_6 () Int)
(declare-fun cell_7_6 () Int)
(declare-fun cell_8_6 () Int)
(declare-fun cell_9_6 () Int)
(declare-fun cell_1_7 () Int)
(declare-fun cell_2_7 () Int)
(declare-fun cell_3_7 () Int)
(declare-fun cell_4_7 () Int)
(declare-fun cell_5_7 () Int)
(declare-fun cell_6_7 () Int)
(declare-fun cell_7_7 () Int)
(declare-fun cell_8_7 () Int)
(declare-fun cell_9_7 () Int)
(declare-fun cell_1_8 () Int)
(declare-fun cell_2_8 () Int)
(declare-fun cell_3_8 () Int)
(declare-fun cell_4_8 () Int)
(declare-fun cell_5_8 () Int)
(declare-fun cell_6_8 () Int)
(declare-fun cell_7_8 () Int)
(declare-fun cell_8_8 () Int)
(declare-fun cell_9_8 () Int)
(declare-fun cell_1_9 () Int)
(declare-fun cell_2_9 () Int)
(declare-fun cell_3_9 () Int)
(declare-fun cell_4_9 () Int)
(declare-fun cell_5_9 () Int)
(declare-fun cell_6_9 () Int)
(declare-fun cell_7_9 () Int)
(declare-fun cell_8_9 () Int)
(declare-fun cell_9_9 () Int)
(assert
 (let (($x257 (= cell_1_1 9)))
 (let (($x341 (= cell_1_1 8)))
 (let (($x5420 (= cell_1_1 7)))
 (let (($x8467 (= cell_1_1 6)))
 (let (($x5972 (= cell_1_1 5)))
 (let (($x5847 (= cell_1_1 4)))
 (let (($x3018 (= cell_1_1 3)))
 (let (($x1767 (= cell_1_1 2)))
 (let (($x8807 (= cell_1_1 1)))
 (or $x8807 $x1767 $x3018 $x5847 $x5972 $x8467 $x5420 $x341 $x257)))))))))))
(assert
 (let (($x4719 (= cell_2_1 9)))
 (let (($x2076 (= cell_2_1 8)))
 (let (($x7291 (= cell_2_1 7)))
 (let (($x2985 (= cell_2_1 6)))
 (let (($x8987 (= cell_2_1 5)))
 (let (($x5808 (= cell_2_1 4)))
 (let (($x2542 (= cell_2_1 3)))
 (let (($x1259 (= cell_2_1 2)))
 (let (($x1253 (= cell_2_1 1)))
 (or $x1253 $x1259 $x2542 $x5808 $x8987 $x2985 $x7291 $x2076 $x4719)))))))))))
(assert
 (let (($x9090 (= cell_3_1 9)))
 (let (($x1130 (= cell_3_1 8)))
 (let (($x1750 (= cell_3_1 7)))
 (let (($x4257 (= cell_3_1 6)))
 (let (($x8982 (= cell_3_1 5)))
 (let (($x9436 (= cell_3_1 4)))
 (let (($x369 (= cell_3_1 3)))
 (let (($x9415 (= cell_3_1 2)))
 (let (($x4842 (= cell_3_1 1)))
 (or $x4842 $x9415 $x369 $x9436 $x8982 $x4257 $x1750 $x1130 $x9090)))))))))))
(assert
 (let (($x980 (= cell_4_1 9)))
 (let (($x3465 (= cell_4_1 8)))
 (let (($x3807 (= cell_4_1 7)))
 (let (($x1207 (= cell_4_1 6)))
 (let (($x3045 (= cell_4_1 5)))
 (let (($x392 (= cell_4_1 4)))
 (let (($x4259 (= cell_4_1 3)))
 (let (($x8626 (= cell_4_1 2)))
 (let (($x6110 (= cell_4_1 1)))
 (or $x6110 $x8626 $x4259 $x392 $x3045 $x1207 $x3807 $x3465 $x980)))))))))))
(assert
 (let (($x5472 (= cell_5_1 9)))
 (let (($x2152 (= cell_5_1 8)))
 (let (($x4920 (= cell_5_1 7)))
 (let (($x8471 (= cell_5_1 6)))
 (let (($x6706 (= cell_5_1 5)))
 (let (($x16 (= cell_5_1 4)))
 (let (($x3070 (= cell_5_1 3)))
 (let (($x4405 (= cell_5_1 2)))
 (let (($x7053 (= cell_5_1 1)))
 (or $x7053 $x4405 $x3070 $x16 $x6706 $x8471 $x4920 $x2152 $x5472)))))))))))
(assert
 (let (($x3214 (= cell_6_1 9)))
 (let (($x7940 (= cell_6_1 8)))
 (let (($x8526 (= cell_6_1 7)))
 (let (($x4476 (= cell_6_1 6)))
 (let (($x812 (= cell_6_1 5)))
 (let (($x8660 (= cell_6_1 4)))
 (let (($x4559 (= cell_6_1 3)))
 (let (($x7967 (= cell_6_1 2)))
 (let (($x7432 (= cell_6_1 1)))
 (or $x7432 $x7967 $x4559 $x8660 $x812 $x4476 $x8526 $x7940 $x3214)))))))))))
(assert
 (let (($x4044 (= cell_7_1 9)))
 (let (($x4890 (= cell_7_1 8)))
 (let (($x6883 (= cell_7_1 7)))
 (let (($x5692 (= cell_7_1 6)))
 (let (($x4782 (= cell_7_1 5)))
 (let (($x1218 (= cell_7_1 4)))
 (let (($x3801 (= cell_7_1 3)))
 (let (($x7285 (= cell_7_1 2)))
 (let (($x2242 (= cell_7_1 1)))
 (or $x2242 $x7285 $x3801 $x1218 $x4782 $x5692 $x6883 $x4890 $x4044)))))))))))
(assert
 (let (($x4555 (= cell_8_1 9)))
 (let (($x9649 (= cell_8_1 8)))
 (let (($x8159 (= cell_8_1 7)))
 (let (($x8977 (= cell_8_1 6)))
 (let (($x3275 (= cell_8_1 5)))
 (let (($x6622 (= cell_8_1 4)))
 (let (($x3537 (= cell_8_1 3)))
 (let (($x7704 (= cell_8_1 2)))
 (let (($x5201 (= cell_8_1 1)))
 (or $x5201 $x7704 $x3537 $x6622 $x3275 $x8977 $x8159 $x9649 $x4555)))))))))))
(assert
 (let (($x2550 (= cell_9_1 9)))
 (let (($x9053 (= cell_9_1 8)))
 (let (($x6713 (= cell_9_1 7)))
 (let (($x5612 (= cell_9_1 6)))
 (let (($x7800 (= cell_9_1 5)))
 (let (($x860 (= cell_9_1 4)))
 (let (($x5902 (= cell_9_1 3)))
 (let (($x2917 (= cell_9_1 2)))
 (let (($x3238 (= cell_9_1 1)))
 (or $x3238 $x2917 $x5902 $x860 $x7800 $x5612 $x6713 $x9053 $x2550)))))))))))
(assert
 (let (($x8586 (= cell_1_2 9)))
 (let (($x623 (= cell_1_2 8)))
 (let (($x5845 (= cell_1_2 7)))
 (let (($x897 (= cell_1_2 6)))
 (let (($x524 (= cell_1_2 5)))
 (let (($x18 (= cell_1_2 4)))
 (let (($x9507 (= cell_1_2 3)))
 (let (($x5729 (= cell_1_2 2)))
 (let (($x9571 (= cell_1_2 1)))
 (or $x9571 $x5729 $x9507 $x18 $x524 $x897 $x5845 $x623 $x8586)))))))))))
(assert
 (let (($x494 (= cell_2_2 9)))
 (let (($x4425 (= cell_2_2 8)))
 (let (($x736 (= cell_2_2 7)))
 (let (($x447 (= cell_2_2 6)))
 (let (($x75 (= cell_2_2 5)))
 (let (($x818 (= cell_2_2 4)))
 (let (($x809 (= cell_2_2 3)))
 (let (($x4220 (= cell_2_2 2)))
 (let (($x1710 (= cell_2_2 1)))
 (or $x1710 $x4220 $x809 $x818 $x75 $x447 $x736 $x4425 $x494)))))))))))
(assert
 (let (($x10212 (= cell_3_2 9)))
 (let (($x4209 (= cell_3_2 8)))
 (let (($x6675 (= cell_3_2 7)))
 (let (($x1116 (= cell_3_2 6)))
 (let (($x2508 (= cell_3_2 5)))
 (let (($x1529 (= cell_3_2 4)))
 (let (($x4454 (= cell_3_2 3)))
 (let (($x7006 (= cell_3_2 2)))
 (let (($x2399 (= cell_3_2 1)))
 (or $x2399 $x7006 $x4454 $x1529 $x2508 $x1116 $x6675 $x4209 $x10212)))))))))))
(assert
 (let (($x7582 (= cell_4_2 9)))
 (let (($x271 (= cell_4_2 8)))
 (let (($x2635 (= cell_4_2 7)))
 (let (($x9141 (= cell_4_2 6)))
 (let (($x4147 (= cell_4_2 5)))
 (let (($x5502 (= cell_4_2 4)))
 (let (($x801 (= cell_4_2 3)))
 (let (($x1441 (= cell_4_2 2)))
 (let (($x3661 (= cell_4_2 1)))
 (or $x3661 $x1441 $x801 $x5502 $x4147 $x9141 $x2635 $x271 $x7582)))))))))))
(assert
 (let (($x8451 (= cell_5_2 9)))
 (let (($x7891 (= cell_5_2 8)))
 (let (($x7702 (= cell_5_2 7)))
 (let (($x3911 (= cell_5_2 6)))
 (let (($x6001 (= cell_5_2 5)))
 (let (($x2790 (= cell_5_2 4)))
 (let (($x8938 (= cell_5_2 3)))
 (let (($x5571 (= cell_5_2 2)))
 (let (($x5425 (= cell_5_2 1)))
 (or $x5425 $x5571 $x8938 $x2790 $x6001 $x3911 $x7702 $x7891 $x8451)))))))))))
(assert
 (let (($x7225 (= cell_6_2 9)))
 (let (($x7956 (= cell_6_2 8)))
 (let (($x10130 (= cell_6_2 7)))
 (let (($x5085 (= cell_6_2 6)))
 (let (($x6505 (= cell_6_2 5)))
 (let (($x7874 (= cell_6_2 4)))
 (let (($x8072 (= cell_6_2 3)))
 (let (($x9879 (= cell_6_2 2)))
 (let (($x4375 (= cell_6_2 1)))
 (or $x4375 $x9879 $x8072 $x7874 $x6505 $x5085 $x10130 $x7956 $x7225)))))))))))
(assert
 (let (($x6439 (= cell_7_2 9)))
 (let (($x2136 (= cell_7_2 8)))
 (let (($x1179 (= cell_7_2 7)))
 (let (($x6565 (= cell_7_2 6)))
 (let (($x3263 (= cell_7_2 5)))
 (let (($x806 (= cell_7_2 4)))
 (let (($x1549 (= cell_7_2 3)))
 (let (($x1631 (= cell_7_2 2)))
 (let (($x6406 (= cell_7_2 1)))
 (or $x6406 $x1631 $x1549 $x806 $x3263 $x6565 $x1179 $x2136 $x6439)))))))))))
(assert
 (let (($x2756 (= cell_8_2 9)))
 (let (($x10019 (= cell_8_2 8)))
 (let (($x8895 (= cell_8_2 7)))
 (let (($x1533 (= cell_8_2 6)))
 (let (($x6913 (= cell_8_2 5)))
 (let (($x10106 (= cell_8_2 4)))
 (let (($x2108 (= cell_8_2 3)))
 (let (($x259 (= cell_8_2 2)))
 (let (($x478 (= cell_8_2 1)))
 (or $x478 $x259 $x2108 $x10106 $x6913 $x1533 $x8895 $x10019 $x2756)))))))))))
(assert
 (let (($x7112 (= cell_9_2 9)))
 (let (($x1475 (= cell_9_2 8)))
 (let (($x8799 (= cell_9_2 7)))
 (let (($x2575 (= cell_9_2 6)))
 (let (($x5960 (= cell_9_2 5)))
 (let (($x9342 (= cell_9_2 4)))
 (let (($x4496 (= cell_9_2 3)))
 (let (($x4287 (= cell_9_2 2)))
 (let (($x1727 (= cell_9_2 1)))
 (or $x1727 $x4287 $x4496 $x9342 $x5960 $x2575 $x8799 $x1475 $x7112)))))))))))
(assert
 (let (($x556 (= cell_1_3 9)))
 (let (($x1778 (= cell_1_3 8)))
 (let (($x1299 (= cell_1_3 7)))
 (let (($x7759 (= cell_1_3 6)))
 (let (($x6256 (= cell_1_3 5)))
 (let (($x7390 (= cell_1_3 4)))
 (let (($x1808 (= cell_1_3 3)))
 (let (($x6780 (= cell_1_3 2)))
 (let (($x9976 (= cell_1_3 1)))
 (or $x9976 $x6780 $x1808 $x7390 $x6256 $x7759 $x1299 $x1778 $x556)))))))))))
(assert
 (let (($x10137 (= cell_2_3 9)))
 (let (($x7064 (= cell_2_3 8)))
 (let (($x93 (= cell_2_3 7)))
 (let (($x8527 (= cell_2_3 6)))
 (let (($x3653 (= cell_2_3 5)))
 (let (($x1269 (= cell_2_3 4)))
 (let (($x22 (= cell_2_3 3)))
 (let (($x5050 (= cell_2_3 2)))
 (let (($x1720 (= cell_2_3 1)))
 (or $x1720 $x5050 $x22 $x1269 $x3653 $x8527 $x93 $x7064 $x10137)))))))))))
(assert
 (let (($x3981 (= cell_3_3 9)))
 (let (($x7384 (= cell_3_3 8)))
 (let (($x7904 (= cell_3_3 7)))
 (let (($x838 (= cell_3_3 6)))
 (let (($x694 (= cell_3_3 5)))
 (let (($x7393 (= cell_3_3 4)))
 (let (($x2784 (= cell_3_3 3)))
 (let (($x8346 (= cell_3_3 2)))
 (let (($x7389 (= cell_3_3 1)))
 (or $x7389 $x8346 $x2784 $x7393 $x694 $x838 $x7904 $x7384 $x3981)))))))))))
(assert
 (let (($x2670 (= cell_4_3 9)))
 (let (($x6885 (= cell_4_3 8)))
 (let (($x7786 (= cell_4_3 7)))
 (let (($x3825 (= cell_4_3 6)))
 (let (($x3086 (= cell_4_3 5)))
 (let (($x5368 (= cell_4_3 4)))
 (let (($x4977 (= cell_4_3 3)))
 (let (($x3848 (= cell_4_3 2)))
 (let (($x7880 (= cell_4_3 1)))
 (or $x7880 $x3848 $x4977 $x5368 $x3086 $x3825 $x7786 $x6885 $x2670)))))))))))
(assert
 (let (($x3259 (= cell_5_3 9)))
 (let (($x7745 (= cell_5_3 8)))
 (let (($x3088 (= cell_5_3 7)))
 (let (($x5388 (= cell_5_3 6)))
 (let (($x1739 (= cell_5_3 5)))
 (let (($x629 (= cell_5_3 4)))
 (let (($x233 (= cell_5_3 3)))
 (let (($x9243 (= cell_5_3 2)))
 (let (($x8858 (= cell_5_3 1)))
 (or $x8858 $x9243 $x233 $x629 $x1739 $x5388 $x3088 $x7745 $x3259)))))))))))
(assert
 (let (($x8960 (= cell_6_3 9)))
 (let (($x6489 (= cell_6_3 8)))
 (let (($x4141 (= cell_6_3 7)))
 (let (($x9330 (= cell_6_3 6)))
 (let (($x6450 (= cell_6_3 5)))
 (let (($x2834 (= cell_6_3 4)))
 (let (($x1400 (= cell_6_3 3)))
 (let (($x7206 (= cell_6_3 2)))
 (let (($x1766 (= cell_6_3 1)))
 (or $x1766 $x7206 $x1400 $x2834 $x6450 $x9330 $x4141 $x6489 $x8960)))))))))))
(assert
 (let (($x8793 (= cell_7_3 9)))
 (let (($x8563 (= cell_7_3 8)))
 (let (($x3206 (= cell_7_3 7)))
 (let (($x7894 (= cell_7_3 6)))
 (let (($x8050 (= cell_7_3 5)))
 (let (($x780 (= cell_7_3 4)))
 (let (($x824 (= cell_7_3 3)))
 (let (($x5516 (= cell_7_3 2)))
 (let (($x6112 (= cell_7_3 1)))
 (or $x6112 $x5516 $x824 $x780 $x8050 $x7894 $x3206 $x8563 $x8793)))))))))))
(assert
 (let (($x6719 (= cell_8_3 9)))
 (let (($x3997 (= cell_8_3 8)))
 (let (($x2271 (= cell_8_3 7)))
 (let (($x9471 (= cell_8_3 6)))
 (let (($x2657 (= cell_8_3 5)))
 (let (($x6158 (= cell_8_3 4)))
 (let (($x7444 (= cell_8_3 3)))
 (let (($x9179 (= cell_8_3 2)))
 (let (($x493 (= cell_8_3 1)))
 (or $x493 $x9179 $x7444 $x6158 $x2657 $x9471 $x2271 $x3997 $x6719)))))))))))
(assert
 (let (($x7841 (= cell_9_3 9)))
 (let (($x6813 (= cell_9_3 8)))
 (let (($x2944 (= cell_9_3 7)))
 (let (($x431 (= cell_9_3 6)))
 (let (($x7642 (= cell_9_3 5)))
 (let (($x4301 (= cell_9_3 4)))
 (let (($x1859 (= cell_9_3 3)))
 (let (($x6263 (= cell_9_3 2)))
 (let (($x4177 (= cell_9_3 1)))
 (or $x4177 $x6263 $x1859 $x4301 $x7642 $x431 $x2944 $x6813 $x7841)))))))))))
(assert
 (let (($x8824 (= cell_1_4 9)))
 (let (($x4523 (= cell_1_4 8)))
 (let (($x4916 (= cell_1_4 7)))
 (let (($x1220 (= cell_1_4 6)))
 (let (($x8998 (= cell_1_4 5)))
 (let (($x9711 (= cell_1_4 4)))
 (let (($x3389 (= cell_1_4 3)))
 (let (($x1589 (= cell_1_4 2)))
 (let (($x3713 (= cell_1_4 1)))
 (or $x3713 $x1589 $x3389 $x9711 $x8998 $x1220 $x4916 $x4523 $x8824)))))))))))
(assert
 (let (($x10054 (= cell_2_4 9)))
 (let (($x3273 (= cell_2_4 8)))
 (let (($x8551 (= cell_2_4 7)))
 (let (($x2456 (= cell_2_4 6)))
 (let (($x724 (= cell_2_4 5)))
 (let (($x6079 (= cell_2_4 4)))
 (let (($x5041 (= cell_2_4 3)))
 (let (($x8068 (= cell_2_4 2)))
 (let (($x4768 (= cell_2_4 1)))
 (or $x4768 $x8068 $x5041 $x6079 $x724 $x2456 $x8551 $x3273 $x10054)))))))))))
(assert
 (let (($x9553 (= cell_3_4 9)))
 (let (($x9576 (= cell_3_4 8)))
 (let (($x6447 (= cell_3_4 7)))
 (let (($x1197 (= cell_3_4 6)))
 (let (($x876 (= cell_3_4 5)))
 (let (($x5867 (= cell_3_4 4)))
 (let (($x6551 (= cell_3_4 3)))
 (let (($x10217 (= cell_3_4 2)))
 (let (($x8438 (= cell_3_4 1)))
 (or $x8438 $x10217 $x6551 $x5867 $x876 $x1197 $x6447 $x9576 $x9553)))))))))))
(assert
 (let (($x543 (= cell_4_4 9)))
 (let (($x9061 (= cell_4_4 8)))
 (let (($x7050 (= cell_4_4 7)))
 (let (($x3278 (= cell_4_4 6)))
 (let (($x5006 (= cell_4_4 5)))
 (let (($x5186 (= cell_4_4 4)))
 (let (($x3274 (= cell_4_4 3)))
 (let (($x6012 (= cell_4_4 2)))
 (let (($x7272 (= cell_4_4 1)))
 (or $x7272 $x6012 $x3274 $x5186 $x5006 $x3278 $x7050 $x9061 $x543)))))))))))
(assert
 (let (($x862 (= cell_5_4 9)))
 (let (($x3060 (= cell_5_4 8)))
 (let (($x9135 (= cell_5_4 7)))
 (let (($x3618 (= cell_5_4 6)))
 (let (($x10061 (= cell_5_4 5)))
 (let (($x2993 (= cell_5_4 4)))
 (let (($x8931 (= cell_5_4 3)))
 (let (($x4285 (= cell_5_4 2)))
 (let (($x5284 (= cell_5_4 1)))
 (or $x5284 $x4285 $x8931 $x2993 $x10061 $x3618 $x9135 $x3060 $x862)))))))))))
(assert
 (let (($x2729 (= cell_6_4 9)))
 (let (($x2526 (= cell_6_4 8)))
 (let (($x2232 (= cell_6_4 7)))
 (let (($x1953 (= cell_6_4 6)))
 (let (($x6128 (= cell_6_4 5)))
 (let (($x3779 (= cell_6_4 4)))
 (let (($x9810 (= cell_6_4 3)))
 (let (($x7466 (= cell_6_4 2)))
 (let (($x7058 (= cell_6_4 1)))
 (or $x7058 $x7466 $x9810 $x3779 $x6128 $x1953 $x2232 $x2526 $x2729)))))))))))
(assert
 (let (($x7796 (= cell_7_4 9)))
 (let (($x3936 (= cell_7_4 8)))
 (let (($x6790 (= cell_7_4 7)))
 (let (($x5624 (= cell_7_4 6)))
 (let (($x3739 (= cell_7_4 5)))
 (let (($x3435 (= cell_7_4 4)))
 (let (($x8366 (= cell_7_4 3)))
 (let (($x9377 (= cell_7_4 2)))
 (let (($x2766 (= cell_7_4 1)))
 (or $x2766 $x9377 $x8366 $x3435 $x3739 $x5624 $x6790 $x3936 $x7796)))))))))))
(assert
 (let (($x7846 (= cell_8_4 9)))
 (let (($x4145 (= cell_8_4 8)))
 (let (($x1468 (= cell_8_4 7)))
 (let (($x2448 (= cell_8_4 6)))
 (let (($x1355 (= cell_8_4 5)))
 (let (($x9642 (= cell_8_4 4)))
 (let (($x5286 (= cell_8_4 3)))
 (let (($x4034 (= cell_8_4 2)))
 (let (($x5066 (= cell_8_4 1)))
 (or $x5066 $x4034 $x5286 $x9642 $x1355 $x2448 $x1468 $x4145 $x7846)))))))))))
(assert
 (let (($x8536 (= cell_9_4 9)))
 (let (($x8884 (= cell_9_4 8)))
 (let (($x3711 (= cell_9_4 7)))
 (let (($x1654 (= cell_9_4 6)))
 (let (($x555 (= cell_9_4 5)))
 (let (($x3049 (= cell_9_4 4)))
 (let (($x466 (= cell_9_4 3)))
 (let (($x7783 (= cell_9_4 2)))
 (let (($x7240 (= cell_9_4 1)))
 (or $x7240 $x7783 $x466 $x3049 $x555 $x1654 $x3711 $x8884 $x8536)))))))))))
(assert
 (let (($x7118 (= cell_1_5 9)))
 (let (($x3487 (= cell_1_5 8)))
 (let (($x8692 (= cell_1_5 7)))
 (let (($x5340 (= cell_1_5 6)))
 (let (($x6241 (= cell_1_5 5)))
 (let (($x3480 (= cell_1_5 4)))
 (let (($x7170 (= cell_1_5 3)))
 (let (($x2288 (= cell_1_5 2)))
 (let (($x2385 (= cell_1_5 1)))
 (or $x2385 $x2288 $x7170 $x3480 $x6241 $x5340 $x8692 $x3487 $x7118)))))))))))
(assert
 (let (($x9964 (= cell_2_5 9)))
 (let (($x6515 (= cell_2_5 8)))
 (let (($x7152 (= cell_2_5 7)))
 (let (($x1437 (= cell_2_5 6)))
 (let (($x8493 (= cell_2_5 5)))
 (let (($x9386 (= cell_2_5 4)))
 (let (($x4267 (= cell_2_5 3)))
 (let (($x337 (= cell_2_5 2)))
 (let (($x1209 (= cell_2_5 1)))
 (or $x1209 $x337 $x4267 $x9386 $x8493 $x1437 $x7152 $x6515 $x9964)))))))))))
(assert
 (let (($x7932 (= cell_3_5 9)))
 (let (($x5405 (= cell_3_5 8)))
 (let (($x4647 (= cell_3_5 7)))
 (let (($x3361 (= cell_3_5 6)))
 (let (($x3931 (= cell_3_5 5)))
 (let (($x2343 (= cell_3_5 4)))
 (let (($x4535 (= cell_3_5 3)))
 (let (($x9965 (= cell_3_5 2)))
 (let (($x6410 (= cell_3_5 1)))
 (or $x6410 $x9965 $x4535 $x2343 $x3931 $x3361 $x4647 $x5405 $x7932)))))))))))
(assert
 (let (($x6566 (= cell_4_5 9)))
 (let (($x2141 (= cell_4_5 8)))
 (let (($x4603 (= cell_4_5 7)))
 (let (($x3950 (= cell_4_5 6)))
 (let (($x4515 (= cell_4_5 5)))
 (let (($x8941 (= cell_4_5 4)))
 (let (($x2878 (= cell_4_5 3)))
 (let (($x2534 (= cell_4_5 2)))
 (let (($x6070 (= cell_4_5 1)))
 (or $x6070 $x2534 $x2878 $x8941 $x4515 $x3950 $x4603 $x2141 $x6566)))))))))))
(assert
 (let (($x4174 (= cell_5_5 9)))
 (let (($x6267 (= cell_5_5 8)))
 (let (($x9724 (= cell_5_5 7)))
 (let (($x583 (= cell_5_5 6)))
 (let (($x9338 (= cell_5_5 5)))
 (let (($x7009 (= cell_5_5 4)))
 (let (($x5378 (= cell_5_5 3)))
 (let (($x4351 (= cell_5_5 2)))
 (let (($x3235 (= cell_5_5 1)))
 (or $x3235 $x4351 $x5378 $x7009 $x9338 $x583 $x9724 $x6267 $x4174)))))))))))
(assert
 (let (($x10101 (= cell_6_5 9)))
 (let (($x884 (= cell_6_5 8)))
 (let (($x8695 (= cell_6_5 7)))
 (let (($x5954 (= cell_6_5 6)))
 (let (($x1060 (= cell_6_5 5)))
 (let (($x9153 (= cell_6_5 4)))
 (let (($x3082 (= cell_6_5 3)))
 (let (($x9268 (= cell_6_5 2)))
 (let (($x5442 (= cell_6_5 1)))
 (or $x5442 $x9268 $x3082 $x9153 $x1060 $x5954 $x8695 $x884 $x10101)))))))))))
(assert
 (let (($x7501 (= cell_7_5 9)))
 (let (($x711 (= cell_7_5 8)))
 (let (($x5141 (= cell_7_5 7)))
 (let (($x3510 (= cell_7_5 6)))
 (let (($x1232 (= cell_7_5 5)))
 (let (($x1456 (= cell_7_5 4)))
 (let (($x8483 (= cell_7_5 3)))
 (let (($x4475 (= cell_7_5 2)))
 (let (($x361 (= cell_7_5 1)))
 (or $x361 $x4475 $x8483 $x1456 $x1232 $x3510 $x5141 $x711 $x7501)))))))))))
(assert
 (let (($x1677 (= cell_8_5 9)))
 (let (($x9717 (= cell_8_5 8)))
 (let (($x4769 (= cell_8_5 7)))
 (let (($x3631 (= cell_8_5 6)))
 (let (($x9653 (= cell_8_5 5)))
 (let (($x5164 (= cell_8_5 4)))
 (let (($x1265 (= cell_8_5 3)))
 (let (($x968 (= cell_8_5 2)))
 (let (($x1282 (= cell_8_5 1)))
 (or $x1282 $x968 $x1265 $x5164 $x9653 $x3631 $x4769 $x9717 $x1677)))))))))))
(assert
 (let (($x10216 (= cell_9_5 9)))
 (let (($x847 (= cell_9_5 8)))
 (let (($x3976 (= cell_9_5 7)))
 (let (($x4599 (= cell_9_5 6)))
 (let (($x3227 (= cell_9_5 5)))
 (let (($x1258 (= cell_9_5 4)))
 (let (($x2127 (= cell_9_5 3)))
 (let (($x864 (= cell_9_5 2)))
 (let (($x9824 (= cell_9_5 1)))
 (or $x9824 $x864 $x2127 $x1258 $x3227 $x4599 $x3976 $x847 $x10216)))))))))))
(assert
 (let (($x2901 (= cell_1_6 9)))
 (let (($x3767 (= cell_1_6 8)))
 (let (($x7317 (= cell_1_6 7)))
 (let (($x4997 (= cell_1_6 6)))
 (let (($x4690 (= cell_1_6 5)))
 (let (($x1523 (= cell_1_6 4)))
 (let (($x9826 (= cell_1_6 3)))
 (let (($x9582 (= cell_1_6 2)))
 (let (($x9311 (= cell_1_6 1)))
 (or $x9311 $x9582 $x9826 $x1523 $x4690 $x4997 $x7317 $x3767 $x2901)))))))))))
(assert
 (let (($x8183 (= cell_2_6 9)))
 (let (($x4383 (= cell_2_6 8)))
 (let (($x6592 (= cell_2_6 7)))
 (let (($x5117 (= cell_2_6 6)))
 (let (($x1596 (= cell_2_6 5)))
 (let (($x8365 (= cell_2_6 4)))
 (let (($x7969 (= cell_2_6 3)))
 (let (($x2632 (= cell_2_6 2)))
 (let (($x5974 (= cell_2_6 1)))
 (or $x5974 $x2632 $x7969 $x8365 $x1596 $x5117 $x6592 $x4383 $x8183)))))))))))
(assert
 (let (($x7608 (= cell_3_6 9)))
 (let (($x3636 (= cell_3_6 8)))
 (let (($x8747 (= cell_3_6 7)))
 (let (($x42 (= cell_3_6 6)))
 (let (($x6697 (= cell_3_6 5)))
 (let (($x9465 (= cell_3_6 4)))
 (let (($x6934 (= cell_3_6 3)))
 (let (($x3316 (= cell_3_6 2)))
 (let (($x340 (= cell_3_6 1)))
 (or $x340 $x3316 $x6934 $x9465 $x6697 $x42 $x8747 $x3636 $x7608)))))))))))
(assert
 (let (($x1103 (= cell_4_6 9)))
 (let (($x3750 (= cell_4_6 8)))
 (let (($x1003 (= cell_4_6 7)))
 (let (($x7876 (= cell_4_6 6)))
 (let (($x2321 (= cell_4_6 5)))
 (let (($x3685 (= cell_4_6 4)))
 (let (($x8221 (= cell_4_6 3)))
 (let (($x9360 (= cell_4_6 2)))
 (let (($x6795 (= cell_4_6 1)))
 (or $x6795 $x9360 $x8221 $x3685 $x2321 $x7876 $x1003 $x3750 $x1103)))))))))))
(assert
 (let (($x3103 (= cell_5_6 9)))
 (let (($x1294 (= cell_5_6 8)))
 (let (($x6481 (= cell_5_6 7)))
 (let (($x6816 (= cell_5_6 6)))
 (let (($x6527 (= cell_5_6 5)))
 (let (($x8290 (= cell_5_6 4)))
 (let (($x2310 (= cell_5_6 3)))
 (let (($x5734 (= cell_5_6 2)))
 (let (($x1143 (= cell_5_6 1)))
 (or $x1143 $x5734 $x2310 $x8290 $x6527 $x6816 $x6481 $x1294 $x3103)))))))))))
(assert
 (let (($x8758 (= cell_6_6 9)))
 (let (($x1192 (= cell_6_6 8)))
 (let (($x6972 (= cell_6_6 7)))
 (let (($x4708 (= cell_6_6 6)))
 (let (($x4453 (= cell_6_6 5)))
 (let (($x8625 (= cell_6_6 4)))
 (let (($x8502 (= cell_6_6 3)))
 (let (($x8658 (= cell_6_6 2)))
 (let (($x8603 (= cell_6_6 1)))
 (or $x8603 $x8658 $x8502 $x8625 $x4453 $x4708 $x6972 $x1192 $x8758)))))))))))
(assert
 (let (($x5421 (= cell_7_6 9)))
 (let (($x9837 (= cell_7_6 8)))
 (let (($x9684 (= cell_7_6 7)))
 (let (($x6400 (= cell_7_6 6)))
 (let (($x8204 (= cell_7_6 5)))
 (let (($x9741 (= cell_7_6 4)))
 (let (($x125 (= cell_7_6 3)))
 (let (($x1806 (= cell_7_6 2)))
 (let (($x4219 (= cell_7_6 1)))
 (or $x4219 $x1806 $x125 $x9741 $x8204 $x6400 $x9684 $x9837 $x5421)))))))))))
(assert
 (let (($x4968 (= cell_8_6 9)))
 (let (($x1374 (= cell_8_6 8)))
 (let (($x9807 (= cell_8_6 7)))
 (let (($x5341 (= cell_8_6 6)))
 (let (($x5526 (= cell_8_6 5)))
 (let (($x7588 (= cell_8_6 4)))
 (let (($x3723 (= cell_8_6 3)))
 (let (($x6214 (= cell_8_6 2)))
 (let (($x7313 (= cell_8_6 1)))
 (or $x7313 $x6214 $x3723 $x7588 $x5526 $x5341 $x9807 $x1374 $x4968)))))))))))
(assert
 (let (($x9378 (= cell_9_6 9)))
 (let (($x8062 (= cell_9_6 8)))
 (let (($x1379 (= cell_9_6 7)))
 (let (($x6591 (= cell_9_6 6)))
 (let (($x4125 (= cell_9_6 5)))
 (let (($x2344 (= cell_9_6 4)))
 (let (($x5855 (= cell_9_6 3)))
 (let (($x9945 (= cell_9_6 2)))
 (let (($x6762 (= cell_9_6 1)))
 (or $x6762 $x9945 $x5855 $x2344 $x4125 $x6591 $x1379 $x8062 $x9378)))))))))))
(assert
 (let (($x934 (= cell_1_7 9)))
 (let (($x1828 (= cell_1_7 8)))
 (let (($x230 (= cell_1_7 7)))
 (let (($x4617 (= cell_1_7 6)))
 (let (($x6803 (= cell_1_7 5)))
 (let (($x563 (= cell_1_7 4)))
 (let (($x9680 (= cell_1_7 3)))
 (let (($x8923 (= cell_1_7 2)))
 (let (($x9204 (= cell_1_7 1)))
 (or $x9204 $x8923 $x9680 $x563 $x6803 $x4617 $x230 $x1828 $x934)))))))))))
(assert
 (let (($x2588 (= cell_2_7 9)))
 (let (($x476 (= cell_2_7 8)))
 (let (($x8123 (= cell_2_7 7)))
 (let (($x10028 (= cell_2_7 6)))
 (let (($x7487 (= cell_2_7 5)))
 (let (($x6136 (= cell_2_7 4)))
 (let (($x2738 (= cell_2_7 3)))
 (let (($x8111 (= cell_2_7 2)))
 (let (($x9280 (= cell_2_7 1)))
 (or $x9280 $x8111 $x2738 $x6136 $x7487 $x10028 $x8123 $x476 $x2588)))))))))))
(assert
 (let (($x6486 (= cell_3_7 9)))
 (let (($x2943 (= cell_3_7 8)))
 (let (($x6032 (= cell_3_7 7)))
 (let (($x8226 (= cell_3_7 6)))
 (let (($x10188 (= cell_3_7 5)))
 (let (($x7172 (= cell_3_7 4)))
 (let (($x3034 (= cell_3_7 3)))
 (let (($x325 (= cell_3_7 2)))
 (let (($x6581 (= cell_3_7 1)))
 (or $x6581 $x325 $x3034 $x7172 $x10188 $x8226 $x6032 $x2943 $x6486)))))))))))
(assert
 (let (($x5017 (= cell_4_7 9)))
 (let (($x4518 (= cell_4_7 8)))
 (let (($x8836 (= cell_4_7 7)))
 (let (($x1854 (= cell_4_7 6)))
 (let (($x3732 (= cell_4_7 5)))
 (let (($x1708 (= cell_4_7 4)))
 (let (($x7338 (= cell_4_7 3)))
 (let (($x577 (= cell_4_7 2)))
 (let (($x4973 (= cell_4_7 1)))
 (or $x4973 $x577 $x7338 $x1708 $x3732 $x1854 $x8836 $x4518 $x5017)))))))))))
(assert
 (let (($x10175 (= cell_5_7 9)))
 (let (($x4773 (= cell_5_7 8)))
 (let (($x7236 (= cell_5_7 7)))
 (let (($x9969 (= cell_5_7 6)))
 (let (($x3373 (= cell_5_7 5)))
 (let (($x5828 (= cell_5_7 4)))
 (let (($x4009 (= cell_5_7 3)))
 (let (($x10195 (= cell_5_7 2)))
 (let (($x3627 (= cell_5_7 1)))
 (or $x3627 $x10195 $x4009 $x5828 $x3373 $x9969 $x7236 $x4773 $x10175)))))))))))
(assert
 (let (($x1901 (= cell_6_7 9)))
 (let (($x195 (= cell_6_7 8)))
 (let (($x4459 (= cell_6_7 7)))
 (let (($x6947 (= cell_6_7 6)))
 (let (($x7870 (= cell_6_7 5)))
 (let (($x9774 (= cell_6_7 4)))
 (let (($x3104 (= cell_6_7 3)))
 (let (($x2047 (= cell_6_7 2)))
 (let (($x384 (= cell_6_7 1)))
 (or $x384 $x2047 $x3104 $x9774 $x7870 $x6947 $x4459 $x195 $x1901)))))))))))
(assert
 (let (($x8769 (= cell_7_7 9)))
 (let (($x7511 (= cell_7_7 8)))
 (let (($x8405 (= cell_7_7 7)))
 (let (($x646 (= cell_7_7 6)))
 (let (($x10131 (= cell_7_7 5)))
 (let (($x1181 (= cell_7_7 4)))
 (let (($x7573 (= cell_7_7 3)))
 (let (($x3710 (= cell_7_7 2)))
 (let (($x8356 (= cell_7_7 1)))
 (or $x8356 $x3710 $x7573 $x1181 $x10131 $x646 $x8405 $x7511 $x8769)))))))))))
(assert
 (let (($x4359 (= cell_8_7 9)))
 (let (($x9959 (= cell_8_7 8)))
 (let (($x7496 (= cell_8_7 7)))
 (let (($x4861 (= cell_8_7 6)))
 (let (($x911 (= cell_8_7 5)))
 (let (($x8124 (= cell_8_7 4)))
 (let (($x8926 (= cell_8_7 3)))
 (let (($x4283 (= cell_8_7 2)))
 (let (($x998 (= cell_8_7 1)))
 (or $x998 $x4283 $x8926 $x8124 $x911 $x4861 $x7496 $x9959 $x4359)))))))))))
(assert
 (let (($x2806 (= cell_9_7 9)))
 (let (($x1376 (= cell_9_7 8)))
 (let (($x4294 (= cell_9_7 7)))
 (let (($x4919 (= cell_9_7 6)))
 (let (($x7012 (= cell_9_7 5)))
 (let (($x4266 (= cell_9_7 4)))
 (let (($x2132 (= cell_9_7 3)))
 (let (($x7591 (= cell_9_7 2)))
 (let (($x2837 (= cell_9_7 1)))
 (or $x2837 $x7591 $x2132 $x4266 $x7012 $x4919 $x4294 $x1376 $x2806)))))))))))
(assert
 (let (($x1086 (= cell_1_8 9)))
 (let (($x3749 (= cell_1_8 8)))
 (let (($x6300 (= cell_1_8 7)))
 (let (($x8774 (= cell_1_8 6)))
 (let (($x3553 (= cell_1_8 5)))
 (let (($x9850 (= cell_1_8 4)))
 (let (($x4926 (= cell_1_8 3)))
 (let (($x5237 (= cell_1_8 2)))
 (let (($x8779 (= cell_1_8 1)))
 (or $x8779 $x5237 $x4926 $x9850 $x3553 $x8774 $x6300 $x3749 $x1086)))))))))))
(assert
 (let (($x9417 (= cell_2_8 9)))
 (let (($x7869 (= cell_2_8 8)))
 (let (($x6178 (= cell_2_8 7)))
 (let (($x9923 (= cell_2_8 6)))
 (let (($x8380 (= cell_2_8 5)))
 (let (($x6628 (= cell_2_8 4)))
 (let (($x3467 (= cell_2_8 3)))
 (let (($x8668 (= cell_2_8 2)))
 (let (($x117 (= cell_2_8 1)))
 (or $x117 $x8668 $x3467 $x6628 $x8380 $x9923 $x6178 $x7869 $x9417)))))))))))
(assert
 (let (($x6609 (= cell_3_8 9)))
 (let (($x1104 (= cell_3_8 8)))
 (let (($x9326 (= cell_3_8 7)))
 (let (($x9949 (= cell_3_8 6)))
 (let (($x2404 (= cell_3_8 5)))
 (let (($x2215 (= cell_3_8 4)))
 (let (($x6912 (= cell_3_8 3)))
 (let (($x1994 (= cell_3_8 2)))
 (let (($x8930 (= cell_3_8 1)))
 (or $x8930 $x1994 $x6912 $x2215 $x2404 $x9949 $x9326 $x1104 $x6609)))))))))))
(assert
 (let (($x2880 (= cell_4_8 9)))
 (let (($x3957 (= cell_4_8 8)))
 (let (($x7650 (= cell_4_8 7)))
 (let (($x1551 (= cell_4_8 6)))
 (let (($x4673 (= cell_4_8 5)))
 (let (($x9763 (= cell_4_8 4)))
 (let (($x6911 (= cell_4_8 3)))
 (let (($x1245 (= cell_4_8 2)))
 (let (($x113 (= cell_4_8 1)))
 (or $x113 $x1245 $x6911 $x9763 $x4673 $x1551 $x7650 $x3957 $x2880)))))))))))
(assert
 (let (($x7283 (= cell_5_8 9)))
 (let (($x4381 (= cell_5_8 8)))
 (let (($x5293 (= cell_5_8 7)))
 (let (($x10237 (= cell_5_8 6)))
 (let (($x3582 (= cell_5_8 5)))
 (let (($x10225 (= cell_5_8 4)))
 (let (($x1704 (= cell_5_8 3)))
 (let (($x9927 (= cell_5_8 2)))
 (let (($x7995 (= cell_5_8 1)))
 (or $x7995 $x9927 $x1704 $x10225 $x3582 $x10237 $x5293 $x4381 $x7283)))))))))))
(assert
 (let (($x8912 (= cell_6_8 9)))
 (let (($x1470 (= cell_6_8 8)))
 (let (($x9905 (= cell_6_8 7)))
 (let (($x7475 (= cell_6_8 6)))
 (let (($x3509 (= cell_6_8 5)))
 (let (($x6914 (= cell_6_8 4)))
 (let (($x5638 (= cell_6_8 3)))
 (let (($x10039 (= cell_6_8 2)))
 (let (($x8718 (= cell_6_8 1)))
 (or $x8718 $x10039 $x5638 $x6914 $x3509 $x7475 $x9905 $x1470 $x8912)))))))))))
(assert
 (let (($x7574 (= cell_7_8 9)))
 (let (($x6167 (= cell_7_8 8)))
 (let (($x9199 (= cell_7_8 7)))
 (let (($x9174 (= cell_7_8 6)))
 (let (($x114 (= cell_7_8 5)))
 (let (($x3408 (= cell_7_8 4)))
 (let (($x4865 (= cell_7_8 3)))
 (let (($x3311 (= cell_7_8 2)))
 (let (($x7838 (= cell_7_8 1)))
 (or $x7838 $x3311 $x4865 $x3408 $x114 $x9174 $x9199 $x6167 $x7574)))))))))))
(assert
 (let (($x9501 (= cell_8_8 9)))
 (let (($x6960 (= cell_8_8 8)))
 (let (($x4949 (= cell_8_8 7)))
 (let (($x5469 (= cell_8_8 6)))
 (let (($x4486 (= cell_8_8 5)))
 (let (($x6052 (= cell_8_8 4)))
 (let (($x8166 (= cell_8_8 3)))
 (let (($x7884 (= cell_8_8 2)))
 (let (($x3392 (= cell_8_8 1)))
 (or $x3392 $x7884 $x8166 $x6052 $x4486 $x5469 $x4949 $x6960 $x9501)))))))))))
(assert
 (let (($x6131 (= cell_9_8 9)))
 (let (($x4216 (= cell_9_8 8)))
 (let (($x5231 (= cell_9_8 7)))
 (let (($x7010 (= cell_9_8 6)))
 (let (($x3075 (= cell_9_8 5)))
 (let (($x4331 (= cell_9_8 4)))
 (let (($x6365 (= cell_9_8 3)))
 (let (($x4832 (= cell_9_8 2)))
 (let (($x5551 (= cell_9_8 1)))
 (or $x5551 $x4832 $x6365 $x4331 $x3075 $x7010 $x5231 $x4216 $x6131)))))))))))
(assert
 (let (($x5784 (= cell_1_9 9)))
 (let (($x4162 (= cell_1_9 8)))
 (let (($x4942 (= cell_1_9 7)))
 (let (($x5037 (= cell_1_9 6)))
 (let (($x5913 (= cell_1_9 5)))
 (let (($x6615 (= cell_1_9 4)))
 (let (($x7950 (= cell_1_9 3)))
 (let (($x4201 (= cell_1_9 2)))
 (let (($x1755 (= cell_1_9 1)))
 (or $x1755 $x4201 $x7950 $x6615 $x5913 $x5037 $x4942 $x4162 $x5784)))))))))))
(assert
 (let (($x1534 (= cell_2_9 9)))
 (let (($x6007 (= cell_2_9 8)))
 (let (($x1925 (= cell_2_9 7)))
 (let (($x3375 (= cell_2_9 6)))
 (let (($x3725 (= cell_2_9 5)))
 (let (($x7593 (= cell_2_9 4)))
 (let (($x7915 (= cell_2_9 3)))
 (let (($x6991 (= cell_2_9 2)))
 (let (($x2802 (= cell_2_9 1)))
 (or $x2802 $x6991 $x7915 $x7593 $x3725 $x3375 $x1925 $x6007 $x1534)))))))))))
(assert
 (let (($x6315 (= cell_3_9 9)))
 (let (($x10238 (= cell_3_9 8)))
 (let (($x1405 (= cell_3_9 7)))
 (let (($x500 (= cell_3_9 6)))
 (let (($x2558 (= cell_3_9 5)))
 (let (($x2311 (= cell_3_9 4)))
 (let (($x6294 (= cell_3_9 3)))
 (let (($x1444 (= cell_3_9 2)))
 (let (($x9587 (= cell_3_9 1)))
 (or $x9587 $x1444 $x6294 $x2311 $x2558 $x500 $x1405 $x10238 $x6315)))))))))))
(assert
 (let (($x4846 (= cell_4_9 9)))
 (let (($x9001 (= cell_4_9 8)))
 (let (($x3439 (= cell_4_9 7)))
 (let (($x8176 (= cell_4_9 6)))
 (let (($x4544 (= cell_4_9 5)))
 (let (($x314 (= cell_4_9 4)))
 (let (($x4866 (= cell_4_9 3)))
 (let (($x9308 (= cell_4_9 2)))
 (let (($x1019 (= cell_4_9 1)))
 (or $x1019 $x9308 $x4866 $x314 $x4544 $x8176 $x3439 $x9001 $x4846)))))))))))
(assert
 (let (($x750 (= cell_5_9 9)))
 (let (($x6432 (= cell_5_9 8)))
 (let (($x7295 (= cell_5_9 7)))
 (let (($x6073 (= cell_5_9 6)))
 (let (($x3658 (= cell_5_9 5)))
 (let (($x8572 (= cell_5_9 4)))
 (let (($x3983 (= cell_5_9 3)))
 (let (($x8319 (= cell_5_9 2)))
 (let (($x4910 (= cell_5_9 1)))
 (or $x4910 $x8319 $x3983 $x8572 $x3658 $x6073 $x7295 $x6432 $x750)))))))))))
(assert
 (let (($x10108 (= cell_6_9 9)))
 (let (($x2726 (= cell_6_9 8)))
 (let (($x10199 (= cell_6_9 7)))
 (let (($x8736 (= cell_6_9 6)))
 (let (($x7681 (= cell_6_9 5)))
 (let (($x831 (= cell_6_9 4)))
 (let (($x671 (= cell_6_9 3)))
 (let (($x3133 (= cell_6_9 2)))
 (let (($x4081 (= cell_6_9 1)))
 (or $x4081 $x3133 $x671 $x831 $x7681 $x8736 $x10199 $x2726 $x10108)))))))))))
(assert
 (let (($x9 (= cell_7_9 9)))
 (let (($x2186 (= cell_7_9 8)))
 (let (($x4921 (= cell_7_9 7)))
 (let (($x231 (= cell_7_9 6)))
 (let (($x4235 (= cell_7_9 5)))
 (let (($x6461 (= cell_7_9 4)))
 (let (($x10176 (= cell_7_9 3)))
 (let (($x159 (= cell_7_9 2)))
 (let (($x661 (= cell_7_9 1)))
 (or $x661 $x159 $x10176 $x6461 $x4235 $x231 $x4921 $x2186 $x9)))))))))))
(assert
 (let (($x534 (= cell_8_9 9)))
 (let (($x9622 (= cell_8_9 8)))
 (let (($x2719 (= cell_8_9 7)))
 (let (($x6936 (= cell_8_9 6)))
 (let (($x3340 (= cell_8_9 5)))
 (let (($x2649 (= cell_8_9 4)))
 (let (($x5609 (= cell_8_9 3)))
 (let (($x1674 (= cell_8_9 2)))
 (let (($x9195 (= cell_8_9 1)))
 (or $x9195 $x1674 $x5609 $x2649 $x3340 $x6936 $x2719 $x9622 $x534)))))))))))
(assert
 (let (($x4935 (= cell_9_9 9)))
 (let (($x7905 (= cell_9_9 8)))
 (let (($x6275 (= cell_9_9 7)))
 (let (($x5580 (= cell_9_9 6)))
 (let (($x9312 (= cell_9_9 5)))
 (let (($x7761 (= cell_9_9 4)))
 (let (($x9777 (= cell_9_9 3)))
 (let (($x8646 (= cell_9_9 2)))
 (let (($x9636 (= cell_9_9 1)))
 (or $x9636 $x8646 $x9777 $x7761 $x9312 $x5580 $x6275 $x7905 $x4935)))))))))))
(assert
 (and (distinct cell_1_1 cell_1_2 cell_1_3 cell_1_4 cell_1_5 cell_1_6 cell_1_7 cell_1_8 cell_1_9) true))
(assert
 (and (distinct cell_2_1 cell_2_2 cell_2_3 cell_2_4 cell_2_5 cell_2_6 cell_2_7 cell_2_8 cell_2_9) true))
(assert
 (and (distinct cell_3_1 cell_3_2 cell_3_3 cell_3_4 cell_3_5 cell_3_6 cell_3_7 cell_3_8 cell_3_9) true))
(assert
 (and (distinct cell_4_1 cell_4_2 cell_4_3 cell_4_4 cell_4_5 cell_4_6 cell_4_7 cell_4_8 cell_4_9) true))
(assert
 (and (distinct cell_5_1 cell_5_2 cell_5_3 cell_5_4 cell_5_5 cell_5_6 cell_5_7 cell_5_8 cell_5_9) true))
(assert
 (and (distinct cell_6_1 cell_6_2 cell_6_3 cell_6_4 cell_6_5 cell_6_6 cell_6_7 cell_6_8 cell_6_9) true))
(assert
 (and (distinct cell_7_1 cell_7_2 cell_7_3 cell_7_4 cell_7_5 cell_7_6 cell_7_7 cell_7_8 cell_7_9) true))
(assert
 (and (distinct cell_8_1 cell_8_2 cell_8_3 cell_8_4 cell_8_5 cell_8_6 cell_8_7 cell_8_8 cell_8_9) true))
(assert
 (and (distinct cell_9_1 cell_9_2 cell_9_3 cell_9_4 cell_9_5 cell_9_6 cell_9_7 cell_9_8 cell_9_9) true))
(assert
 (and (distinct cell_1_1 cell_2_1 cell_3_1 cell_4_1 cell_5_1 cell_6_1 cell_7_1 cell_8_1 cell_9_1) true))
(assert
 (and (distinct cell_1_2 cell_2_2 cell_3_2 cell_4_2 cell_5_2 cell_6_2 cell_7_2 cell_8_2 cell_9_2) true))
(assert
 (and (distinct cell_1_3 cell_2_3 cell_3_3 cell_4_3 cell_5_3 cell_6_3 cell_7_3 cell_8_3 cell_9_3) true))
(assert
 (and (distinct cell_1_4 cell_2_4 cell_3_4 cell_4_4 cell_5_4 cell_6_4 cell_7_4 cell_8_4 cell_9_4) true))
(assert
 (and (distinct cell_1_5 cell_2_5 cell_3_5 cell_4_5 cell_5_5 cell_6_5 cell_7_5 cell_8_5 cell_9_5) true))
(assert
 (and (distinct cell_1_6 cell_2_6 cell_3_6 cell_4_6 cell_5_6 cell_6_6 cell_7_6 cell_8_6 cell_9_6) true))
(assert
 (and (distinct cell_1_7 cell_2_7 cell_3_7 cell_4_7 cell_5_7 cell_6_7 cell_7_7 cell_8_7 cell_9_7) true))
(assert
 (and (distinct cell_1_8 cell_2_8 cell_3_8 cell_4_8 cell_5_8 cell_6_8 cell_7_8 cell_8_8 cell_9_8) true))
(assert
 (and (distinct cell_1_9 cell_2_9 cell_3_9 cell_4_9 cell_5_9 cell_6_9 cell_7_9 cell_8_9 cell_9_9) true))
(assert
 (and (distinct cell_1_1 cell_1_2 cell_1_3 cell_2_1 cell_2_2 cell_2_3 cell_3_1 cell_3_2 cell_3_3) true))
(assert
 (and (distinct cell_1_4 cell_1_5 cell_1_6 cell_2_4 cell_2_5 cell_2_6 cell_3_4 cell_3_5 cell_3_6) true))
(assert
 (and (distinct cell_1_7 cell_1_8 cell_1_9 cell_2_7 cell_2_8 cell_2_9 cell_3_7 cell_3_8 cell_3_9) true))
(assert
 (and (distinct cell_4_1 cell_4_2 cell_4_3 cell_5_1 cell_5_2 cell_5_3 cell_6_1 cell_6_2 cell_6_3) true))
(assert
 (and (distinct cell_4_4 cell_4_5 cell_4_6 cell_5_4 cell_5_5 cell_5_6 cell_6_4 cell_6_5 cell_6_6) true))
(assert
 (and (distinct cell_4_7 cell_4_8 cell_4_9 cell_5_7 cell_5_8 cell_5_9 cell_6_7 cell_6_8 cell_6_9) true))
(assert
 (and (distinct cell_7_1 cell_7_2 cell_7_3 cell_8_1 cell_8_2 cell_8_3 cell_9_1 cell_9_2 cell_9_3) true))
(assert
 (and (distinct cell_7_4 cell_7_5 cell_7_6 cell_8_4 cell_8_5 cell_8_6 cell_9_4 cell_9_5 cell_9_6) true))
(assert
 (and (distinct cell_7_7 cell_7_8 cell_7_9 cell_8_7 cell_8_8 cell_8_9 cell_9_7 cell_9_8 cell_9_9) true))
(assert
 (let (($x6926 (and (distinct cell_5_9 cell_6_8 cell_7_7 cell_8_6) true)))
 (let (($x1894 (and (distinct cell_2_9 cell_3_8 cell_4_7 cell_5_6 cell_6_5 cell_7_4 cell_8_3 cell_9_2) true)))
 (let (($x8267 (and (distinct cell_1_8 cell_2_7 cell_3_6 cell_4_5 cell_5_4 cell_6_3 cell_7_2 cell_8_1) true)))
 (let (($x5920 (and (distinct cell_1_5 cell_2_4 cell_3_3 cell_4_2) true)))
 (let (($x2016 (and (distinct cell_5_1 cell_6_2 cell_7_3 cell_8_4) true)))
 (let (($x1158 (and (distinct cell_2_1 cell_3_2 cell_4_3 cell_5_4 cell_6_5 cell_7_6 cell_8_7 cell_9_8) true)))
 (let (($x1743 (and (distinct cell_1_2 cell_2_3 cell_3_4 cell_4_5 cell_5_6 cell_6_7 cell_7_8 cell_8_9) true)))
 (let (($x631 (and (distinct cell_1_5 cell_2_6 cell_3_7 cell_4_8) true)))
 (and $x631 $x1743 $x1158 $x2016 $x5920 $x8267 $x1894 $x6926))))))))))
(assert
 (= cell_1_1 1))
(assert
 (= cell_2_8 1))
(assert
 (= cell_3_6 1))
(assert
 (= cell_4_9 1))
(assert
 (= cell_5_2 1))
(assert
 (= cell_6_4 1))
(assert
 (= cell_7_3 1))
(assert
 (= cell_8_7 1))
(assert
 (= cell_9_5 1))
(assert
 (= cell_1_5 2))
(assert
 (= cell_2_1 2))
(assert
 (= cell_3_9 2))
(assert
 (= cell_4_7 2))
(assert
 (= cell_5_3 2))
(assert
 (= cell_6_6 2))
(assert
 (= cell_7_8 2))
(assert
 (= cell_8_2 2))
(assert
 (= cell_9_4 2))
(assert
 (= cell_1_8 3))
(assert
 (= cell_2_2 3))
(check-sat)

